************************************************************************
file with basedata            : md348_.bas
initial value random generator: 1678676708
************************************************************************
projects                      :  1
jobs (incl. supersource/sink ):  22
horizon                       :  159
RESOURCES
  - renewable                 :  2   R
  - nonrenewable              :  2   N
  - doubly constrained        :  0   D
************************************************************************
PROJECT INFORMATION:
pronr.  #jobs rel.date duedate tardcost  MPM-Time
    1     20      0       25       16       25
************************************************************************
PRECEDENCE RELATIONS:
jobnr.    #modes  #successors   successors
   1        1          3           2   3   4
   2        3          3           5   8   9
   3        3          1           6
   4        3          3          14  16  21
   5        3          1          21
   6        3          3           7  12  13
   7        3          3          10  11  14
   8        3          3          10  15  19
   9        3          2          11  20
  10        3          1          16
  11        3          2          19  21
  12        3          2          15  18
  13        3          3          14  16  19
  14        3          2          15  18
  15        3          1          17
  16        3          2          17  18
  17        3          1          20
  18        3          1          20
  19        3          1          22
  20        3          1          22
  21        3          1          22
  22        1          0        
************************************************************************
REQUESTS/DURATIONS:
jobnr. mode duration  R 1  R 2  N 1  N 2
------------------------------------------------------------------------
  1      1     0       0    0    0    0
  2      1     1       8    0    0    3
         2     4       5    0   10    0
         3     6       2    0    0    2
  3      1     6       6    0    7    0
         2     7       6    0    6    0
         3     7       0    6    6    0
  4      1     7       0    5    2    0
         2     8       0    5    0    4
         3     9       0    4    0    3
  5      1     3       0    9    8    0
         2     3       4    0    1    0
         3    10       3    0    0    9
  6      1     2       8    0    5    0
         2     8       0    4    0    2
         3    10       6    0    0    2
  7      1     8       0    5    9    0
         2     9       5    0    4    0
         3    10       0    4    0    9
  8      1     2       9    0    3    0
         2     5       0    9    0    8
         3     7       0    7    0    7
  9      1     2       0    9    0    8
         2     5       4    0    0    4
         3     5       4    0    9    0
 10      1     1       0    7    7    0
         2     3       4    0    5    0
         3    10       0    6    0    2
 11      1     1       8    0    9    0
         2     3       0    7    9    0
         3     8       0    7    8    0
 12      1     2       1    0    8    0
         2     3       0    8    7    0
         3     8       0    6    4    0
 13      1     6       6    0    8    0
         2     6       0    2    0    6
         3     7       8    0    0    5
 14      1     1       0    8    0    3
         2     1       0    8    6    0
         3     9       7    0    5    0
 15      1     1       9    0    6    0
         2    10       0    8    6    0
         3    10       6    0    0    6
 16      1     4       9    0    0    9
         2     5       0    1    0    9
         3     6       9    0    0    7
 17      1     1       0    1    0    8
         2     3       6    0    0    1
         3     8       4    0    6    0
 18      1     3       0    3    3    0
         2     4       0    2    3    0
         3     5       6    0    0    3
 19      1     2       0    9    7    0
         2     5       6    0    4    0
         3    10       0    8    0    6
 20      1     1       0    8    0    2
         2     1       2    0    0    3
         3     5       0    9    6    0
 21      1     3       7    0    6    0
         2     7       6    0    0    2
         3     9       0    5    4    0
 22      1     0       0    0    0    0
************************************************************************
RESOURCEAVAILABILITIES:
  R 1  R 2  N 1  N 2
   29   38  125   91
************************************************************************
MAXIMAL LAGS:
from  to  type  delay
    1   22   ES      0
    1    2   ES      0
    2   22   ES      0
    1    3   ES      0
    3   22   ES      0
    1    4   ES      0
    4   22   ES      0
    1    5   ES      0
    5   22   ES      0
    1    6   ES      0
    6   22   ES      0
    1    7   ES      0
    7   22   ES      0
    1    8   ES      0
    8   22   ES      0
    1    9   ES      0
    9   22   ES      0
    1   10   ES      0
   10   22   ES      0
    1   11   ES      0
   11   22   ES      0
    1   12   ES      0
   12   22   ES      0
    1   13   ES      0
   13   22   ES      0
    1   14   ES      0
   14   22   ES      0
    1   15   ES      0
   15   22   ES      0
    1   16   ES      0
   16   22   ES      0
    1   17   ES      0
   17   22   ES      0
    1   18   ES      0
   18   22   ES      0
    1   19   ES      0
   19   22   ES      0
    1   20   ES      0
   20   22   ES      0
    1   21   ES      0
   21   22   ES      0
    1   22   ES      0
    2    5   SS      6
    2    5   SE      5
    2    5   ES      4
    2    5   EE     -5
    2    8   SS     -8
    2    8   SE     -8
    2    8   ES    -12
    2    8   EE      9
    2    9   SS     12
    2    9   SE     -9
    2    9   ES     -8
    2    9   EE     -1
    3    6   SS      0
    3    6   SE     11
    3    6   ES     11
    3    6   EE    -11
    4   14   SS      5
    4   14   SE     -6
    4   14   ES     -7
    4   14   EE    -11
    4   16   SS    -11
    4   16   SE     -4
    4   16   ES     12
    4   16   EE      5
    4   21   SS      3
    4   21   SE      7
    4   21   ES      9
    4   21   EE      2
    5   21   SS      4
    5   21   SE      4
    5   21   ES      4
    5   21   EE      6
    6    7   SS      2
    6    7   SE     -1
    6    7   ES      9
    6    7   EE     -6
    6   12   SS     10
    6   12   SE     11
    6   12   ES     11
    6   12   EE     10
    6   13   SS     -1
    6   13   SE      9
    6   13   ES      4
    6   13   EE     -1
    7   10   SS     -7
    7   10   SE     -5
    7   10   ES      8
    7   10   EE      5
    7   11   SS      0
    7   11   SE    -11
    7   11   ES     12
    7   11   EE     12
    7   14   SS    -11
    7   14   SE     -6
    7   14   ES    -12
    7   14   EE     -4
    8   10   SS     -3
    8   10   SE     -5
   10    8   SE      0
    8   10   ES      0
    8   10   EE      8
    8   15   SS    -10
    8   15   SE      6
    8   15   ES      6
    8   15   EE     -2
    8   19   SS     -9
    8   19   SE      2
    8   19   ES    -10
    8   19   EE     -1
    9   11   SS     -7
    9   11   SE     -6
    9   11   ES     11
    9   11   EE      6
    9   20   SS    -10
    9   20   SE    -12
    9   20   ES     12
    9   20   EE     -8
   10   16   SS      8
   10   16   SE      6
   10   16   ES     -7
   10   16   EE     12
   11   19   SS     11
   11   19   SE      6
   11   19   ES     11
   11   19   EE     -1
   11   21   SS      9
   11   21   SE    -12
   11   21   ES    -10
   11   21   EE     -3
   12   15   SS     -6
   12   15   SE      3
   12   15   ES     -4
   12   15   EE      8
   12   18   SS     11
   12   18   SE      4
   12   18   ES     -6
   12   18   EE    -11
   13   14   SS      7
   13   14   SE     -6
   13   14   ES    -12
   13   14   EE      6
   13   16   SS      1
   13   16   SE      3
   13   16   ES    -10
   13   16   EE     -6
   13   19   SS      9
   13   19   SE      6
   13   19   ES      3
   13   19   EE    -10
   14   15   SS      7
   14   15   SE     -9
   14   15   ES     -8
   14   15   EE      0
   14   18   SS    -11
   14   18   SE      8
   14   18   ES     -8
   14   18   EE     11
   15   17   SS     -8
   15   17   SE     -9
   15   17   ES     -6
   15   17   EE     -7
   16   17   SS     -9
   16   17   SE      9
   16   17   ES     10
   16   17   EE      2
   16   18   SS      1
   16   18   SE      2
   16   18   ES     12
   16   18   EE      9
   17   20   SS     -8
   17   20   SE    -11
   17   20   ES     -9
   17   20   EE      7
   18   20   SS     12
   18   20   SE     11
   18   20   ES      9
   18   20   EE    -10
************************************************************************
